####################################################
#  Transport properties of NaB(OH)4 in water
#  at 298 K and 1 atm. 
#################### SETTING UP ####################
units real
dimension 3
newton on
boundary p p p
atom_style full

#################### VARIABLES ####################
variable Temp equal 298       # Temperature in K
variable Pres equal 1.0       # Pressure in atm.

variable RandomSeed equal 500 # The random seed for velocity
variable tstep equal 1.0      # 1fs 
variable Ninptpre equal 10000 # Pre-initialize the NPT ensemble (very small timesteps)
variable Ninpt equal 5000000  # Initialize the NPT ensemble
variable Npnpt equal 5000000  # Production in the NPT ensemble (volume)
variable Ninvtpre equal 10000 # Pre-initialize the NVT ensemble (very small timesteps)
variable Ninvt equal 1000000   # Initialize the NVT ensemble
variable Nrun equal 20000000    # production in the NVT ensemble
variable Nf equal 10000       # Nfreq (fix ave/time and thermo)
variable Ne equal  10         # Nevery (fix ave/time)
variable Nr equal ${Nf}/${Ne} # Nrepeat (fix ave/time)
variable NBR equal ${Npnpt}/10 # Block averaging for density (NPT)
variable Nd equal ${Nrun}/10 # Frequency of outputting positions of atoms in the NVT ensemble

variable nb equal 10          # Number of blocks (fix ordern)
variable nbe equal 20         # Number of block elements (fix ordern)
variable Nvisc equal 5        # Nevery for viscosity (fix ordern: sample data at (Nvisc*2))
variable Ncond equal 5        # Nevery for Tconductivity (fix ordern: sample data at (Ncond*2))
variable Ndiff equal 1000     # Nevery for diffusivity (fix ordern: sample data at (Ndiff))
variable Nwrit equal 100000   # Nwrite for transport properties (fix ordern: write every (Nwrit))

variable Nrdfe equal 100      # Nevery for RDF (fix ave/time)
variable Nrdfw equal 1000     # Nwrite for RDF (compute rdf/ext: write every (Nrdfw*Nrdfe))
variable binnum equal 2000    # Number of bins for RDF

#################### ATOM DEFINITION and FORCEFIELD ####################
read_data ./data.lmp                     # read the positions
include ./forcefield.data                  # read the force field

#################### INITIALIZATION ####################
# groups for the central atoms of water (O) and methanol (O)
group wat type 1      # The Oxygen of WATER molecules
group Na type 3
group B type 5
group OH type 6
group H2  type 8

# neigbor lists
neighbor 2.0 bin
neigh_modify every 1 delay 0 check yes

# velocity-Verlet integrator
run_style verlet

# minimizing the system using the conjugate gradient method
#min_style cg
#min_modify dmax 0.05 
#minimize 1.0e-6 1.0e-6 1000 10000
#reset_timestep 0

# initializing velocities
velocity all create ${Temp} ${RandomSeed}  

# rate of writing thermal properties to the log file
thermo ${Nf}

#################### 1) Initialize the NPT ensemble ####################
# applying the shake algorithm for rigid molecules and the NPT solver
#fix constrain all shake 1.0e-6 1000 0 b 1 a 1
fix integrate all rigid/npt/small molecule temp ${Temp} ${Temp} 10.0 iso ${Pres} ${Pres} 100.0


# Initializing the whole system with very small timesteps in the NPT ensemble
timestep 0.001
run ${Ninptpre} 
timestep 0.01
run ${Ninptpre} 
timestep 0.1
run ${Ninptpre} 
timestep 0.2
run ${Ninptpre} 
timestep 0.5
run ${Ninptpre} 
reset_timestep 0

# continuing the initialization with the final value of timestep
unfix integrate
fix integrate all rigid/npt/small molecule temp ${Temp} ${Temp} 100.0 iso ${Pres} ${Pres} 1000.0

timestep ${tstep}
run ${Ninpt}
reset_timestep 0

#################### 2) Obtaining average volume in NPT ######################
# Getting the average volume of the system
variable Volume equal vol
fix VoluAve all ave/time 1 ${Npnpt} ${Npnpt} v_Volume file volume.dat

variable TotEn1 equal etotal
fix TEAve1 all ave/time ${Ne} ${Nr} ${Nf} v_TotEn1 file TotalENPT.dat

variable PotEn1 equal pe
fix PEAve1 all ave/time ${Ne} ${Nr} ${Nf} v_PotEn1 file PotenENPT.dat

compute T1 all temp
fix TempAve1 all ave/time ${Ne} ${Nr} ${Nf} c_T1 file temperatureNPT.dat

compute P1 all pressure T1
fix PressAve1 all ave/time ${Ne} ${Nr} ${Nf} c_P1 file pressureNPT.dat



run ${Npnpt}
reset_timestep 0

#################### 3) Initializing the NVT ensemble ####################
# scaling the size of the system to the average volume
variable sidesize equal (f_VoluAve^(1.0/3.0))    # get the volume
variable xlow equal xlo
variable ylow equal ylo
variable zlow equal zlo
variable xhig equal (xlo+${sidesize})
variable yhig equal (ylo+${sidesize})
variable zhig equal (zlo+${sidesize})
change_box all x final ${xlow} ${xhig} y final ${ylow} ${yhig} z final ${zlow} ${zhig}
unfix VoluAve
unfix TEAve1
unfix PEAve1
unfix TempAve1
unfix PressAve1


# changing the ensemble to NVT
unfix integrate
fix integrate all rigid/nvt/small molecule temp ${Temp} ${Temp} 100.0

# Initializing the whole system with very small timesteps in the NVT ensemble
timestep 0.001
run ${Ninvtpre} 
timestep 0.01
run ${Ninvtpre} 
timestep 0.1
run ${Ninvtpre} 
timestep 0.2
run ${Ninvtpre} 
timestep 0.5
run ${Ninvtpre} 
reset_timestep 0

# continuing the initialization with the final value of timestep
timestep ${tstep}
run ${Ninvt}
reset_timestep 0

#################### 4) Obtaining average total energy in NVT #####################
variable T1 equal temp
variable TE1 equal etotal
variable KE1 equal ke
variable PE1 equal pe
fix Tave1 all ave/time ${Nrun} 1 ${Nrun} v_T1
fix TEave1 all ave/time 1 ${Nrun} ${Nrun} v_TE1
fix KEave1 all ave/time ${Nrun} 1 ${Nrun} v_KE1
fix PEave1 all ave/time ${Nrun} 1 ${Nrun} v_PE1


dump trjectory all xyz ${Nd} movie.xyz 
dump_modify trjectory element O H Na M B OH H L           

# computing average total energy, pontential energy, temperature, and pressure over time
variable TotEn equal etotal
fix TEAve all ave/time ${Ne} ${Nr} ${Nf} v_TotEn file TotalE.dat

variable PotEn equal pe
fix PEAve all ave/time ${Ne} ${Nr} ${Nf} v_PotEn file PotenE.dat

compute T all temp
fix TempAve all ave/time ${Ne} ${Nr} ${Nf} c_T file temperature.dat

compute P all pressure T
fix PressAve all ave/time ${Ne} ${Nr} ${Nf} c_P file pressure.dat


# computing self-diffusion and Onsager coefficients using the OCTP plugin
compute positions all position
fix f3 all ordern diffusivity ${Ndiff} ${Nwrit} c_positions nb ${nb} nbe ${nbe} file diffself.dat diffonsag.dat title "Water at 298 K and 1 atm"


# computing shear and bulk viscosities  using the OCTP plugin
fix f1 all ordern viscosity ${Nvisc} ${Nwrit} c_P nb ${nb} nbe ${nbe} file viscosity.dat title "Water at 298 K and 1 atm"


# computing the RDF for all group pairs
compute rdfs all rdf/ext Nbin ${binnum} Nwrite ${Nrdfw} file rdf.dat
fix f4 all ave/time 1 1 ${Nrdfe} c_rdfs


# Thermo style for outputing system properties to the log file
thermo_style custom step temp f_TempAve press f_PressAve pe ke etotal
thermo_modify flush yes

#thermo 1
run ${Nrun}

quit

